c 218_3_checker_5cl.cnf
c
c field = 218
c formula set type = 3_checker_5cl
c
p cnf 5 6
344 
374 
404 
-315 
-284 
345 
375 
405 
-314 
-285 
338 
370 
402 
-307 
-274 
339 
371 
403 
-306 
-275 
350 
378 
406 
-323 
-294 
351 
379 
407 
-322 
-295 
